(set-info :source |printed by MathSAT|)
(declare-fun param_e12 () Bool)
(declare-fun call__DRAGON_.ite43 () Int)
(declare-fun call__DRAGON_.ite2 () Int)
(declare-fun call__DRAGON_.invalid () Int)
(declare-fun call__DRAGON_.ite36 () Int)
(declare-fun call__DRAGON_.ite41 () Int)
(declare-fun call__DRAGON_.ite25 () Int)
(declare-fun call__DRAGON_.ite5 () Int)
(declare-fun env () Bool)
(declare-fun call__DRAGON_.ite3 () Int)
(declare-fun call__DRAGON_.ite37 () Int)
(declare-fun call__DRAGON_.ite34 () Int)
(declare-fun call__DRAGON_.flby4 () Int)
(declare-fun call__DRAGON_.shared_dirty () Int)
(declare-fun call_First.flby () Int)
(declare-fun call__DRAGON_.exclusive () Int)
(declare-fun call__DRAGON_.ite35 () Int)
(declare-fun dirty () Int)
(declare-fun call__DRAGON_.ite12 () Int)
(declare-fun call__DRAGON_.ite57 () Int)
(declare-fun call__DRAGON_.g08 () Bool)
(declare-fun param_e03 () Bool)
(declare-fun call__DRAGON_.ite14 () Int)
(declare-fun param_e10 () Bool)
(declare-fun call__DRAGON_.g06 () Bool)
(declare-fun flby () Bool)
(declare-fun shared () Int)
(declare-fun call_Sofar.Sofar () Bool)
(declare-fun call__DRAGON_.ite11 () Int)
(declare-fun call__DRAGON_.ite23 () Int)
(declare-fun call__DRAGON_.ite42 () Int)
(declare-fun call__DRAGON_.ite40 () Int)
(declare-fun call__DRAGON_.ite7 () Int)
(declare-fun param_init_invalid () Int)
(declare-fun call_excludes12.excludes () Bool)
(declare-fun call__DRAGON_.flby5 () Int)
(declare-fun call__DRAGON_.ite4 () Int)
(declare-fun call__DRAGON_.ite46 () Int)
(declare-fun param_e08 () Bool)
(declare-fun call__DRAGON_.g04 () Bool)
(declare-fun call__DRAGON_.ite45 () Int)
(declare-fun erreur () Bool)
(declare-fun call__DRAGON_.erreur () Bool)
(declare-fun call__DRAGON_.ite61 () Int)
(declare-fun call__DRAGON_.ite55 () Int)
(declare-fun call__DRAGON_.ite38 () Int)
(declare-fun call__DRAGON_.ite28 () Int)
(declare-fun call__DRAGON_.ite19 () Int)
(declare-fun call__DRAGON_.ite () Bool)
(declare-fun param_e05 () Bool)
(declare-fun param_e09 () Bool)
(declare-fun call__DRAGON_.ite30 () Int)
(declare-fun call__DRAGON_.flby3 () Int)
(declare-fun call__DRAGON_.ite18 () Int)
(declare-fun call__DRAGON_.ite58 () Int)
(declare-fun param_e07 () Bool)
(declare-fun call__DRAGON_.flby2 () Int)
(declare-fun call__DRAGON_.ite8 () Int)
(declare-fun call__DRAGON_.ite22 () Int)
(declare-fun call__DRAGON_.ite17 () Int)
(declare-fun call__DRAGON_.ite15 () Int)
(declare-fun call__DRAGON_.g05 () Bool)
(declare-fun param_e11 () Bool)
(declare-fun invalid () Int)
(declare-fun call__DRAGON_.mem_init () Int)
(declare-fun call__DRAGON_.ite53 () Int)
(declare-fun call__DRAGON_.ite54 () Int)
(declare-fun shared_dirty () Int)
(declare-fun call__DRAGON_.ite60 () Int)
(declare-fun param_e06 () Bool)
(declare-fun call__DRAGON_.ite21 () Int)
(declare-fun call__DRAGON_.ite48 () Int)
(declare-fun call__DRAGON_.ite39 () Int)
(declare-fun call_Sofar.flby () Bool)
(declare-fun call__DRAGON_.ite33 () Int)
(declare-fun call__DRAGON_.ite44 () Int)
(declare-fun call__DRAGON_.ite56 () Int)
(declare-fun call__DRAGON_.ite52 () Int)
(declare-fun call__DRAGON_.ite16 () Int)
(declare-fun exclusive () Int)
(declare-fun call__DRAGON_.ite6 () Int)
(declare-fun call__DRAGON_.ite27 () Int)
(declare-fun call__DRAGON_.ite50 () Int)
(declare-fun call__DRAGON_.ite31 () Int)
(declare-fun call__DRAGON_.ite47 () Int)
(declare-fun call__DRAGON_.ite20 () Int)
(declare-fun call__DRAGON_.ite10 () Int)
(declare-fun call__DRAGON_.flby6 () Int)
(declare-fun _OK_ () Bool)
(declare-fun call__DRAGON_.dirty () Int)
(declare-fun param_e01 () Bool)
(declare-fun call__DRAGON_.ite32 () Int)
(declare-fun call__DRAGON_.ite26 () Int)
(declare-fun param_e04 () Bool)
(declare-fun call__DRAGON_.ite49 () Int)
(declare-fun call__DRAGON_.g02 () Bool)
(declare-fun call__DRAGON_.ite51 () Int)
(declare-fun call__DRAGON_.ite24 () Int)
(declare-fun call__DRAGON_.ite29 () Int)
(declare-fun param_e02 () Bool)
(declare-fun call__DRAGON_.ite59 () Int)
(declare-fun call__DRAGON_.shared () Int)
(declare-fun call__DRAGON_.flby () Int)
(declare-fun call__DRAGON_.ite13 () Int)
(declare-fun call_First.First () Int)
(declare-fun call__DRAGON_.ite9 () Int)
(define-fun .def_1818 () Bool (= call_First.flby call_First.First))
(define-fun .def_1816 () Bool (= call_Sofar.flby call_Sofar.Sofar))
(define-fun .def_1625 () Bool (not param_e02))
(define-fun .def_1606 () Bool (not param_e01))
(define-fun .def_1714 () Bool (and .def_1606 .def_1625))
(define-fun .def_1666 () Bool (not param_e03))
(define-fun .def_1715 () Bool (and .def_1666 .def_1714))
(define-fun .def_1682 () Bool (not param_e04))
(define-fun .def_1716 () Bool (and .def_1682 .def_1715))
(define-fun .def_1454 () Bool (not param_e05))
(define-fun .def_1717 () Bool (and .def_1454 .def_1716))
(define-fun .def_1436 () Bool (not param_e06))
(define-fun .def_1718 () Bool (and .def_1436 .def_1717))
(define-fun .def_1471 () Bool (not param_e07))
(define-fun .def_1719 () Bool (and .def_1471 .def_1718))
(define-fun .def_1490 () Bool (not param_e08))
(define-fun .def_1720 () Bool (and .def_1490 .def_1719))
(define-fun .def_1327 () Bool (not param_e09))
(define-fun .def_1721 () Bool (and .def_1327 .def_1720))
(define-fun .def_1335 () Bool (not param_e10))
(define-fun .def_1722 () Bool (and .def_1335 .def_1721))
(define-fun .def_1342 () Bool (not param_e11))
(define-fun .def_1723 () Bool (and .def_1342 .def_1722))
(define-fun .def_1349 () Bool (not param_e12))
(define-fun .def_1801 () Bool (and .def_1349 .def_1723))
(define-fun .def_1790 () Bool (and param_e01 .def_1625))
(define-fun .def_1791 () Bool (and .def_1666 .def_1790))
(define-fun .def_1792 () Bool (and .def_1682 .def_1791))
(define-fun .def_1793 () Bool (and .def_1454 .def_1792))
(define-fun .def_1794 () Bool (and .def_1436 .def_1793))
(define-fun .def_1795 () Bool (and .def_1471 .def_1794))
(define-fun .def_1796 () Bool (and .def_1490 .def_1795))
(define-fun .def_1797 () Bool (and .def_1327 .def_1796))
(define-fun .def_1798 () Bool (and .def_1335 .def_1797))
(define-fun .def_1799 () Bool (and .def_1342 .def_1798))
(define-fun .def_1800 () Bool (and .def_1349 .def_1799))
(define-fun .def_1802 () Bool (or .def_1800 .def_1801))
(define-fun .def_1779 () Bool (and .def_1606 param_e02))
(define-fun .def_1780 () Bool (and .def_1666 .def_1779))
(define-fun .def_1781 () Bool (and .def_1682 .def_1780))
(define-fun .def_1782 () Bool (and .def_1454 .def_1781))
(define-fun .def_1783 () Bool (and .def_1436 .def_1782))
(define-fun .def_1784 () Bool (and .def_1471 .def_1783))
(define-fun .def_1785 () Bool (and .def_1490 .def_1784))
(define-fun .def_1786 () Bool (and .def_1327 .def_1785))
(define-fun .def_1787 () Bool (and .def_1335 .def_1786))
(define-fun .def_1788 () Bool (and .def_1342 .def_1787))
(define-fun .def_1789 () Bool (and .def_1349 .def_1788))
(define-fun .def_1803 () Bool (or .def_1789 .def_1802))
(define-fun .def_1769 () Bool (and param_e03 .def_1714))
(define-fun .def_1770 () Bool (and .def_1682 .def_1769))
(define-fun .def_1771 () Bool (and .def_1454 .def_1770))
(define-fun .def_1772 () Bool (and .def_1436 .def_1771))
(define-fun .def_1773 () Bool (and .def_1471 .def_1772))
(define-fun .def_1774 () Bool (and .def_1490 .def_1773))
(define-fun .def_1775 () Bool (and .def_1327 .def_1774))
(define-fun .def_1776 () Bool (and .def_1335 .def_1775))
(define-fun .def_1777 () Bool (and .def_1342 .def_1776))
(define-fun .def_1778 () Bool (and .def_1349 .def_1777))
(define-fun .def_1804 () Bool (or .def_1778 .def_1803))
(define-fun .def_1760 () Bool (and param_e04 .def_1715))
(define-fun .def_1761 () Bool (and .def_1454 .def_1760))
(define-fun .def_1762 () Bool (and .def_1436 .def_1761))
(define-fun .def_1763 () Bool (and .def_1471 .def_1762))
(define-fun .def_1764 () Bool (and .def_1490 .def_1763))
(define-fun .def_1765 () Bool (and .def_1327 .def_1764))
(define-fun .def_1766 () Bool (and .def_1335 .def_1765))
(define-fun .def_1767 () Bool (and .def_1342 .def_1766))
(define-fun .def_1768 () Bool (and .def_1349 .def_1767))
(define-fun .def_1805 () Bool (or .def_1768 .def_1804))
(define-fun .def_1752 () Bool (and param_e05 .def_1716))
(define-fun .def_1753 () Bool (and .def_1436 .def_1752))
(define-fun .def_1754 () Bool (and .def_1471 .def_1753))
(define-fun .def_1755 () Bool (and .def_1490 .def_1754))
(define-fun .def_1756 () Bool (and .def_1327 .def_1755))
(define-fun .def_1757 () Bool (and .def_1335 .def_1756))
(define-fun .def_1758 () Bool (and .def_1342 .def_1757))
(define-fun .def_1759 () Bool (and .def_1349 .def_1758))
(define-fun .def_1806 () Bool (or .def_1759 .def_1805))
(define-fun .def_1745 () Bool (and param_e06 .def_1717))
(define-fun .def_1746 () Bool (and .def_1471 .def_1745))
(define-fun .def_1747 () Bool (and .def_1490 .def_1746))
(define-fun .def_1748 () Bool (and .def_1327 .def_1747))
(define-fun .def_1749 () Bool (and .def_1335 .def_1748))
(define-fun .def_1750 () Bool (and .def_1342 .def_1749))
(define-fun .def_1751 () Bool (and .def_1349 .def_1750))
(define-fun .def_1807 () Bool (or .def_1751 .def_1806))
(define-fun .def_1739 () Bool (and param_e07 .def_1718))
(define-fun .def_1740 () Bool (and .def_1490 .def_1739))
(define-fun .def_1741 () Bool (and .def_1327 .def_1740))
(define-fun .def_1742 () Bool (and .def_1335 .def_1741))
(define-fun .def_1743 () Bool (and .def_1342 .def_1742))
(define-fun .def_1744 () Bool (and .def_1349 .def_1743))
(define-fun .def_1808 () Bool (or .def_1744 .def_1807))
(define-fun .def_1734 () Bool (and param_e08 .def_1719))
(define-fun .def_1735 () Bool (and .def_1327 .def_1734))
(define-fun .def_1736 () Bool (and .def_1335 .def_1735))
(define-fun .def_1737 () Bool (and .def_1342 .def_1736))
(define-fun .def_1738 () Bool (and .def_1349 .def_1737))
(define-fun .def_1809 () Bool (or .def_1738 .def_1808))
(define-fun .def_1730 () Bool (and param_e09 .def_1720))
(define-fun .def_1731 () Bool (and .def_1335 .def_1730))
(define-fun .def_1732 () Bool (and .def_1342 .def_1731))
(define-fun .def_1733 () Bool (and .def_1349 .def_1732))
(define-fun .def_1810 () Bool (or .def_1733 .def_1809))
(define-fun .def_1727 () Bool (and param_e10 .def_1721))
(define-fun .def_1728 () Bool (and .def_1342 .def_1727))
(define-fun .def_1729 () Bool (and .def_1349 .def_1728))
(define-fun .def_1811 () Bool (or .def_1729 .def_1810))
(define-fun .def_1725 () Bool (and param_e11 .def_1722))
(define-fun .def_1726 () Bool (and .def_1349 .def_1725))
(define-fun .def_1812 () Bool (or .def_1726 .def_1811))
(define-fun .def_1724 () Bool (and param_e12 .def_1723))
(define-fun .def_1813 () Bool (or .def_1724 .def_1812))
(define-fun .def_1814 () Bool (= call_excludes12.excludes .def_1813))
(define-fun .def_1712 () Bool (= call__DRAGON_.mem_init call__DRAGON_.flby))
(define-fun .def_1710 () Bool (= call__DRAGON_.erreur call__DRAGON_.ite))
(define-fun .def_1708 () Bool (= call__DRAGON_.flby6 call__DRAGON_.invalid))
(define-fun .def_1706 () Bool (= call__DRAGON_.flby5 call__DRAGON_.dirty))
(define-fun .def_1704 () Bool (= call__DRAGON_.flby4 call__DRAGON_.shared_dirty))
(define-fun .def_1702 () Bool (= call__DRAGON_.flby3 call__DRAGON_.shared))
(define-fun .def_1699 () Bool (= call__DRAGON_.flby2 call__DRAGON_.exclusive))
(define-fun .def_1694 () Bool (<= 2 call__DRAGON_.exclusive))
(define-fun .def_1696 () Bool (not .def_1694))
(define-fun .def_1697 () Bool (or call__DRAGON_.ite .def_1696))
(define-fun .def_1693 () Bool (not call__DRAGON_.ite))
(define-fun .def_1695 () Bool (or .def_1693 .def_1694))
(define-fun .def_1698 () Bool (and .def_1695 .def_1697))
(define-fun .def_1700 () Bool (and .def_1698 .def_1699))
(define-fun .def_1688 () Bool (= call__DRAGON_.ite29 call__DRAGON_.ite30))
(define-fun .def_1689 () Bool (or param_e04 .def_1688))
(define-fun .def_1685 () Bool (= call__DRAGON_.ite23 call__DRAGON_.ite30))
(define-fun .def_1686 () Bool (or .def_1682 .def_1685))
(define-fun .def_1681 () Bool (= call__DRAGON_.ite43 call__DRAGON_.ite34))
(define-fun .def_1683 () Bool (or .def_1681 .def_1682))
(define-fun .def_1677 () Bool (= call__DRAGON_.ite42 call__DRAGON_.ite43))
(define-fun .def_1679 () Bool (or .def_1677 param_e04))
(define-fun .def_1684 () Bool (and .def_1679 .def_1683))
(define-fun .def_1687 () Bool (and .def_1684 .def_1686))
(define-fun .def_1690 () Bool (and .def_1687 .def_1689))
(define-fun .def_1673 () Bool (= call__DRAGON_.ite8 call__DRAGON_.ite9))
(define-fun .def_1674 () Bool (or param_e03 .def_1673))
(define-fun .def_1670 () Bool (= call__DRAGON_.ite9 call__DRAGON_.ite4))
(define-fun .def_1671 () Bool (or .def_1666 .def_1670))
(define-fun .def_1665 () Bool (= call__DRAGON_.ite44 call__DRAGON_.ite33))
(define-fun .def_1667 () Bool (or .def_1665 .def_1666))
(define-fun .def_1661 () Bool (= call__DRAGON_.ite44 call__DRAGON_.ite43))
(define-fun .def_1663 () Bool (or .def_1661 param_e03))
(define-fun .def_1668 () Bool (and .def_1663 .def_1667))
(define-fun .def_1672 () Bool (and .def_1668 .def_1671))
(define-fun .def_1675 () Bool (and .def_1672 .def_1674))
(define-fun .def_1656 () Bool (= call__DRAGON_.ite31 call__DRAGON_.ite30))
(define-fun .def_1657 () Bool (or param_e02 .def_1656))
(define-fun .def_1652 () Bool (= call__DRAGON_.ite22 call__DRAGON_.ite31))
(define-fun .def_1653 () Bool (or .def_1625 .def_1652))
(define-fun .def_1647 () Bool (= call__DRAGON_.ite20 call__DRAGON_.ite21))
(define-fun .def_1648 () Bool (or param_e02 .def_1647))
(define-fun .def_1644 () Bool (= call__DRAGON_.ite12 call__DRAGON_.ite21))
(define-fun .def_1645 () Bool (or .def_1625 .def_1644))
(define-fun .def_1639 () Bool (= call__DRAGON_.ite10 call__DRAGON_.ite9))
(define-fun .def_1640 () Bool (or param_e02 .def_1639))
(define-fun .def_1635 () Bool (= call__DRAGON_.ite3 call__DRAGON_.ite10))
(define-fun .def_1636 () Bool (or .def_1625 .def_1635))
(define-fun .def_1632 () Bool (= call__DRAGON_.ite59 call__DRAGON_.ite60))
(define-fun .def_1633 () Bool (or param_e02 .def_1632))
(define-fun .def_1629 () Bool (= call__DRAGON_.ite60 call__DRAGON_.ite47))
(define-fun .def_1630 () Bool (or .def_1625 .def_1629))
(define-fun .def_1624 () Bool (= call__DRAGON_.ite32 call__DRAGON_.ite45))
(define-fun .def_1626 () Bool (or .def_1624 .def_1625))
(define-fun .def_1621 () Bool (= call__DRAGON_.ite45 call__DRAGON_.ite44))
(define-fun .def_1623 () Bool (or .def_1621 param_e02))
(define-fun .def_1627 () Bool (and .def_1623 .def_1626))
(define-fun .def_1631 () Bool (and .def_1627 .def_1630))
(define-fun .def_1634 () Bool (and .def_1631 .def_1633))
(define-fun .def_1637 () Bool (and .def_1634 .def_1636))
(define-fun .def_1641 () Bool (and .def_1637 .def_1640))
(define-fun .def_1646 () Bool (and .def_1641 .def_1645))
(define-fun .def_1649 () Bool (and .def_1646 .def_1648))
(define-fun .def_1654 () Bool (and .def_1649 .def_1653))
(define-fun .def_1658 () Bool (and .def_1654 .def_1657))
(define-fun .def_1615 () Bool (= call__DRAGON_.ite11 call__DRAGON_.ite10))
(define-fun .def_1616 () Bool (or param_e01 .def_1615))
(define-fun .def_1611 () Bool (= call__DRAGON_.ite2 call__DRAGON_.ite11))
(define-fun .def_1612 () Bool (or .def_1606 .def_1611))
(define-fun .def_1605 () Bool (= call__DRAGON_.ite61 call__DRAGON_.ite46))
(define-fun .def_1607 () Bool (or .def_1605 .def_1606))
(define-fun .def_1601 () Bool (= call__DRAGON_.ite61 call__DRAGON_.ite60))
(define-fun .def_1603 () Bool (or .def_1601 param_e01))
(define-fun .def_1608 () Bool (and .def_1603 .def_1607))
(define-fun .def_1613 () Bool (and .def_1608 .def_1612))
(define-fun .def_1617 () Bool (and .def_1613 .def_1616))
(define-fun .def_1595 () Bool (= call__DRAGON_.ite55 call__DRAGON_.ite52))
(define-fun .def_1596 () Bool (or .def_1342 .def_1595))
(define-fun .def_1592 () Bool (= call__DRAGON_.ite54 call__DRAGON_.ite55))
(define-fun .def_1593 () Bool (or param_e11 .def_1592))
(define-fun .def_1597 () Bool (and .def_1593 .def_1596))
(define-fun .def_1588 () Bool (= call__DRAGON_.ite56 call__DRAGON_.ite51))
(define-fun .def_1589 () Bool (or .def_1335 .def_1588))
(define-fun .def_1585 () Bool (= call__DRAGON_.ite56 call__DRAGON_.ite55))
(define-fun .def_1586 () Bool (or param_e10 .def_1585))
(define-fun .def_1590 () Bool (and .def_1586 .def_1589))
(define-fun .def_1580 () Bool (= call__DRAGON_.ite57 call__DRAGON_.ite50))
(define-fun .def_1581 () Bool (or .def_1327 .def_1580))
(define-fun .def_1577 () Bool (= call__DRAGON_.ite57 call__DRAGON_.ite56))
(define-fun .def_1578 () Bool (or param_e09 .def_1577))
(define-fun .def_1582 () Bool (and .def_1578 .def_1581))
(define-fun .def_1574 () Bool (= env call_Sofar.Sofar))
(define-fun .def_1571 () Bool (= erreur call__DRAGON_.erreur))
(define-fun .def_1568 () Bool (= invalid call__DRAGON_.invalid))
(define-fun .def_1565 () Bool (= dirty call__DRAGON_.dirty))
(define-fun .def_1562 () Bool (= shared_dirty call__DRAGON_.shared_dirty))
(define-fun .def_1559 () Bool (= shared call__DRAGON_.shared))
(define-fun .def_1556 () Bool (= exclusive call__DRAGON_.exclusive))
(define-fun .def_1550 () Bool (<= 0 exclusive))
(define-fun .def_1542 () Int (* (- 1) call_First.First))
(define-fun .def_1543 () Int (+ invalid .def_1542))
(define-fun .def_1544 () Int (+ dirty .def_1543))
(define-fun .def_1545 () Int (+ shared_dirty .def_1544))
(define-fun .def_1546 () Int (+ shared .def_1545))
(define-fun .def_1547 () Int (+ exclusive .def_1546))
(define-fun .def_1548 () Bool (= .def_1547 0))
(define-fun .def_1524 () Bool (not erreur))
(define-fun .def_1525 () Bool (and flby .def_1524))
(define-fun .def_1549 () Bool (and .def_1525 .def_1548))
(define-fun .def_1551 () Bool (and .def_1549 .def_1550))
(define-fun .def_1522 () Bool (not env))
(define-fun .def_1552 () Bool (or .def_1522 .def_1551))
(define-fun .def_1553 () Bool (= _OK_ .def_1552))
(define-fun .def_1516 () Bool (= call__DRAGON_.ite39 call__DRAGON_.ite40))
(define-fun .def_1517 () Bool (or param_e08 .def_1516))
(define-fun .def_1513 () Bool (= call__DRAGON_.ite37 call__DRAGON_.ite40))
(define-fun .def_1514 () Bool (or .def_1490 .def_1513))
(define-fun .def_1510 () Bool (= call__DRAGON_.ite27 call__DRAGON_.ite28))
(define-fun .def_1511 () Bool (or param_e08 .def_1510))
(define-fun .def_1507 () Bool (= call__DRAGON_.ite25 call__DRAGON_.ite28))
(define-fun .def_1508 () Bool (or .def_1490 .def_1507))
(define-fun .def_1504 () Bool (= call__DRAGON_.ite17 call__DRAGON_.ite18))
(define-fun .def_1505 () Bool (or param_e08 .def_1504))
(define-fun .def_1501 () Bool (= call__DRAGON_.ite18 call__DRAGON_.ite15))
(define-fun .def_1502 () Bool (or .def_1490 .def_1501))
(define-fun .def_1497 () Bool (= call__DRAGON_.ite7 call__DRAGON_.ite8))
(define-fun .def_1498 () Bool (or param_e08 .def_1497))
(define-fun .def_1494 () Bool (= call__DRAGON_.ite5 call__DRAGON_.ite8))
(define-fun .def_1495 () Bool (or .def_1490 .def_1494))
(define-fun .def_1489 () Bool (= call__DRAGON_.ite58 call__DRAGON_.ite49))
(define-fun .def_1491 () Bool (or .def_1489 .def_1490))
(define-fun .def_1485 () Bool (= call__DRAGON_.ite58 call__DRAGON_.ite57))
(define-fun .def_1487 () Bool (or .def_1485 param_e08))
(define-fun .def_1492 () Bool (and .def_1487 .def_1491))
(define-fun .def_1496 () Bool (and .def_1492 .def_1495))
(define-fun .def_1499 () Bool (and .def_1496 .def_1498))
(define-fun .def_1503 () Bool (and .def_1499 .def_1502))
(define-fun .def_1506 () Bool (and .def_1503 .def_1505))
(define-fun .def_1509 () Bool (and .def_1506 .def_1508))
(define-fun .def_1512 () Bool (and .def_1509 .def_1511))
(define-fun .def_1515 () Bool (and .def_1512 .def_1514))
(define-fun .def_1518 () Bool (and .def_1515 .def_1517))
(define-fun .def_1480 () Bool (= call__DRAGON_.ite59 call__DRAGON_.ite58))
(define-fun .def_1481 () Bool (or param_e07 .def_1480))
(define-fun .def_1476 () Bool (= call__DRAGON_.ite48 call__DRAGON_.ite59))
(define-fun .def_1477 () Bool (or .def_1471 .def_1476))
(define-fun .def_1470 () Bool (= call__DRAGON_.ite41 call__DRAGON_.ite36))
(define-fun .def_1472 () Bool (or .def_1470 .def_1471))
(define-fun .def_1466 () Bool (= call__DRAGON_.ite41 call__DRAGON_.ite40))
(define-fun .def_1468 () Bool (or .def_1466 param_e07))
(define-fun .def_1473 () Bool (and .def_1468 .def_1472))
(define-fun .def_1478 () Bool (and .def_1473 .def_1477))
(define-fun .def_1482 () Bool (and .def_1478 .def_1481))
(define-fun .def_1461 () Bool (= call__DRAGON_.ite19 call__DRAGON_.ite20))
(define-fun .def_1462 () Bool (or param_e05 .def_1461))
(define-fun .def_1458 () Bool (= call__DRAGON_.ite13 call__DRAGON_.ite20))
(define-fun .def_1459 () Bool (or .def_1454 .def_1458))
(define-fun .def_1453 () Bool (= call__DRAGON_.ite42 call__DRAGON_.ite35))
(define-fun .def_1455 () Bool (or .def_1453 .def_1454))
(define-fun .def_1449 () Bool (= call__DRAGON_.ite41 call__DRAGON_.ite42))
(define-fun .def_1451 () Bool (or .def_1449 param_e05))
(define-fun .def_1456 () Bool (and .def_1451 .def_1455))
(define-fun .def_1460 () Bool (and .def_1456 .def_1459))
(define-fun .def_1463 () Bool (and .def_1460 .def_1462))
(define-fun .def_1444 () Bool (= call__DRAGON_.ite29 call__DRAGON_.ite28))
(define-fun .def_1445 () Bool (or param_e06 .def_1444))
(define-fun .def_1440 () Bool (= call__DRAGON_.ite24 call__DRAGON_.ite29))
(define-fun .def_1441 () Bool (or .def_1436 .def_1440))
(define-fun .def_1435 () Bool (= call__DRAGON_.ite19 call__DRAGON_.ite14))
(define-fun .def_1437 () Bool (or .def_1435 .def_1436))
(define-fun .def_1431 () Bool (= call__DRAGON_.ite19 call__DRAGON_.ite18))
(define-fun .def_1433 () Bool (or .def_1431 param_e06))
(define-fun .def_1438 () Bool (and .def_1433 .def_1437))
(define-fun .def_1442 () Bool (and .def_1438 .def_1441))
(define-fun .def_1446 () Bool (and .def_1442 .def_1445))
(define-fun .def_1464 () Bool (and .def_1446 .def_1463))
(define-fun .def_1483 () Bool (and .def_1464 .def_1482))
(define-fun .def_1519 () Bool (and .def_1483 .def_1518))
(define-fun .def_1554 () Bool (and .def_1519 .def_1553))
(define-fun .def_1557 () Bool (and .def_1554 .def_1556))
(define-fun .def_1560 () Bool (and .def_1557 .def_1559))
(define-fun .def_1563 () Bool (and .def_1560 .def_1562))
(define-fun .def_1566 () Bool (and .def_1563 .def_1565))
(define-fun .def_1569 () Bool (and .def_1566 .def_1568))
(define-fun .def_1572 () Bool (and .def_1569 .def_1571))
(define-fun .def_1575 () Bool (and .def_1572 .def_1574))
(define-fun .def_1583 () Bool (and .def_1575 .def_1582))
(define-fun .def_1591 () Bool (and .def_1583 .def_1590))
(define-fun .def_1598 () Bool (and .def_1591 .def_1597))
(define-fun .def_1618 () Bool (and .def_1598 .def_1617))
(define-fun .def_1659 () Bool (and .def_1618 .def_1658))
(define-fun .def_1676 () Bool (and .def_1659 .def_1675))
(define-fun .def_1691 () Bool (and .def_1676 .def_1690))
(define-fun .def_1701 () Bool (and .def_1691 .def_1700))
(define-fun .def_1703 () Bool (and .def_1701 .def_1702))
(define-fun .def_1705 () Bool (and .def_1703 .def_1704))
(define-fun .def_1707 () Bool (and .def_1705 .def_1706))
(define-fun .def_1709 () Bool (and .def_1707 .def_1708))
(define-fun .def_1711 () Bool (and .def_1709 .def_1710))
(define-fun .def_1713 () Bool (and .def_1711 .def_1712))
(define-fun .def_1815 () Bool (and .def_1713 .def_1814))
(define-fun .def_1817 () Bool (and .def_1815 .def_1816))
(define-fun .def_1819 () Bool (and .def_1817 .def_1818))
(define-fun .def_1427 () Bool (= param_init_invalid call_First.flby))
(define-fun .def_1419 () Bool (<= param_init_invalid 0))
(define-fun .def_1420 () Bool (not .def_1419))
(define-fun .def_1422 () Bool (and .def_1420 call_excludes12.excludes))
(define-fun .def_1424 () Bool (= .def_1422 call_Sofar.flby))
(define-fun .def_1417 () Bool (= call__DRAGON_.flby4 0))
(define-fun .def_1414 () Bool (= call__DRAGON_.flby3 0))
(define-fun .def_1411 () Bool (= call__DRAGON_.flby2 0))
(define-fun .def_1408 () Bool (= param_init_invalid call__DRAGON_.flby))
(define-fun .def_1402 () Bool (= call__DRAGON_.ite37 0))
(define-fun .def_1395 () Bool (not call__DRAGON_.g08))
(define-fun .def_1403 () Bool (or .def_1395 .def_1402))
(define-fun .def_1398 () Bool (= call__DRAGON_.ite5 0))
(define-fun .def_1399 () Bool (or .def_1395 .def_1398))
(define-fun .def_1393 () Bool (= call__DRAGON_.ite25 1))
(define-fun .def_1396 () Bool (or .def_1393 .def_1395))
(define-fun .def_1400 () Bool (and .def_1396 .def_1399))
(define-fun .def_1404 () Bool (and .def_1400 .def_1403))
(define-fun .def_1389 () Bool (= call__DRAGON_.ite24 1))
(define-fun .def_1387 () Bool (not call__DRAGON_.g06))
(define-fun .def_1390 () Bool (or .def_1387 .def_1389))
(define-fun .def_1383 () Bool (= call__DRAGON_.ite13 0))
(define-fun .def_1381 () Bool (not call__DRAGON_.g05))
(define-fun .def_1384 () Bool (or .def_1381 .def_1383))
(define-fun .def_1377 () Bool (= call__DRAGON_.ite23 0))
(define-fun .def_1375 () Bool (not call__DRAGON_.g04))
(define-fun .def_1378 () Bool (or .def_1375 .def_1377))
(define-fun .def_1370 () Bool (= call__DRAGON_.ite3 0))
(define-fun .def_1367 () Bool (not call__DRAGON_.g02))
(define-fun .def_1371 () Bool (or .def_1367 .def_1370))
(define-fun .def_1365 () Bool (= call__DRAGON_.ite32 0))
(define-fun .def_1368 () Bool (or .def_1365 .def_1367))
(define-fun .def_1372 () Bool (and .def_1368 .def_1371))
(define-fun .def_1362 () Bool (= call__DRAGON_.flby6 call__DRAGON_.mem_init))
(define-fun .def_1358 () Bool (= call__DRAGON_.flby5 0))
(define-fun .def_1353 () Bool (= call__DRAGON_.ite53 call__DRAGON_.ite54))
(define-fun .def_1354 () Bool (or .def_1349 .def_1353))
(define-fun .def_1347 () Bool (= call__DRAGON_.ite6 call__DRAGON_.ite7))
(define-fun .def_1350 () Bool (or .def_1347 .def_1349))
(define-fun .def_1355 () Bool (and .def_1350 .def_1354))
(define-fun .def_1340 () Bool (= call__DRAGON_.ite26 call__DRAGON_.ite27))
(define-fun .def_1343 () Bool (or .def_1340 .def_1342))
(define-fun .def_1333 () Bool (= call__DRAGON_.ite16 call__DRAGON_.ite17))
(define-fun .def_1336 () Bool (or .def_1333 .def_1335))
(define-fun .def_1325 () Bool (= call__DRAGON_.ite38 call__DRAGON_.ite39))
(define-fun .def_1328 () Bool (or .def_1325 .def_1327))
(define-fun .def_1330 () Bool (and .def_1328 flby))
(define-fun .def_1337 () Bool (and .def_1330 .def_1336))
(define-fun .def_1344 () Bool (and .def_1337 .def_1343))
(define-fun .def_1356 () Bool (and .def_1344 .def_1355))
(define-fun .def_1359 () Bool (and .def_1356 .def_1358))
(define-fun .def_1363 () Bool (and .def_1359 .def_1362))
(define-fun .def_1373 () Bool (and .def_1363 .def_1372))
(define-fun .def_1379 () Bool (and .def_1373 .def_1378))
(define-fun .def_1385 () Bool (and .def_1379 .def_1384))
(define-fun .def_1391 () Bool (and .def_1385 .def_1390))
(define-fun .def_1405 () Bool (and .def_1391 .def_1404))
(define-fun .def_1409 () Bool (and .def_1405 .def_1408))
(define-fun .def_1412 () Bool (and .def_1409 .def_1411))
(define-fun .def_1415 () Bool (and .def_1412 .def_1414))
(define-fun .def_1418 () Bool (and .def_1415 .def_1417))
(define-fun .def_1425 () Bool (and .def_1418 .def_1424))
(define-fun .def_1428 () Bool (and .def_1425 .def_1427))
(define-fun .def_1820 () Bool (and .def_1428 .def_1819))
(assert .def_1820)
